500 500 60
348 220 2
255 184 2
191 249 4
212 194 4
348 322 1
171 369 2
206 327 2
221 277 2
250 202 2
205 226 4
193 280 2
364 311 1
264 224 2
244 347 2
270 338 1
224 236 4
168 177 4
285 347 1
315 294 1
247 219 4
315 302 1
129 147 9
268 273 1
350 352 1
186 258 2
365 374 1
145 259 3
284 184 2
129 198 6
146 351 3
220 348 2
184 255 2
249 191 4
194 212 4
322 348 1
369 171 2
327 206 2
277 221 2
202 250 2
226 205 4
280 193 2
311 364 1
224 264 2
347 244 2
338 270 1
236 224 4
177 168 4
347 285 1
294 315 1
219 247 4
302 315 1
147 129 9
273 268 1
352 350 1
258 186 2
374 365 1
259 145 3
184 284 2
198 129 6
351 146 3
